Cost: 319
0-34-46-8-19-35-26-0
0-4-45-15-57-13-52-0
0-27-29-48-47-21-30-0
0-58-10-38-11-53-7-0
0-17-12-9-32-51-0
Cost: 319
0-7-53-11-38-10-58-0
0-30-48-29-45-34-46-0
0-12-39-9-25-32-40-0
0-4-52-13-54-19-8-0
0-26-17-51-16-33-0
Cost: 319
0-34-46-8-19-35-26-0
0-4-45-15-57-13-52-0
0-27-29-48-47-21-30-0
0-58-10-38-11-53-7-0
0-17-12-9-32-51-0
Cost: 319
0-34-46-8-19-35-26-0
0-4-45-15-57-13-52-0
0-27-29-48-47-21-30-0
0-58-10-38-11-53-7-0
0-17-12-9-32-51-0
Cost: 319
0-34-46-8-19-35-26-0
0-4-45-15-57-13-52-0
0-27-29-48-47-21-30-0
0-58-10-38-11-53-7-0
0-17-12-9-32-51-0
Cost: 319
0-34-46-8-19-35-26-0
0-4-45-15-57-13-52-0
0-27-29-48-47-21-30-0
0-58-10-38-11-53-7-0
0-17-12-9-32-51-0
Cost: 319
0-34-46-8-19-35-26-0
0-4-45-15-57-13-52-0
0-27-29-48-47-21-30-0
0-58-10-38-11-53-7-0
0-17-12-9-32-51-0
Cost: 319
0-34-46-8-19-35-26-0
0-4-45-15-57-13-52-0
0-27-29-48-47-21-30-0
0-58-10-38-11-53-7-0
0-17-12-9-32-51-0
Cost: 319
0-34-46-8-19-35-26-0
0-4-45-15-57-13-52-0
0-27-29-48-47-21-30-0
0-58-10-38-11-53-7-0
0-17-12-9-32-51-0
Cost: 319
0-34-46-8-19-35-26-0
0-4-45-15-57-13-52-0
0-27-29-48-47-21-30-0
0-58-10-38-11-53-7-0
0-17-12-9-32-51-0
Cost: 319
0-34-46-8-19-35-26-0
0-4-45-15-57-13-52-0
0-27-29-48-47-21-30-0
0-58-10-38-11-53-7-0
0-17-12-9-32-51-0
Cost: 319
0-34-46-8-19-35-26-0
0-4-45-15-57-13-52-0
0-27-29-48-47-21-30-0
0-58-10-38-11-53-7-0
0-17-12-9-32-51-0
Cost: 319
0-34-46-8-19-35-26-0
0-4-45-15-57-13-52-0
0-27-29-48-47-21-30-0
0-58-10-38-11-53-7-0
0-17-12-9-32-51-0
Cost: 319
0-34-46-8-19-35-26-0
0-4-45-15-57-13-52-0
0-27-29-48-47-21-30-0
0-58-10-38-11-53-7-0
0-17-12-9-32-51-0
Cost: 319
0-34-46-8-19-35-26-0
0-4-45-15-57-13-52-0
0-27-29-48-47-21-30-0
0-58-10-38-11-53-7-0
0-17-12-9-32-51-0
Cost: 319
0-34-46-8-19-35-26-0
0-4-45-15-57-13-52-0
0-27-29-48-47-21-30-0
0-58-10-38-11-53-7-0
0-17-12-9-32-51-0
Cost: 319
0-34-46-8-19-35-26-0
0-4-45-15-57-13-52-0
0-27-29-48-47-21-30-0
0-58-10-38-11-53-7-0
0-17-12-9-32-51-0
Cost: 319
0-34-46-8-19-35-26-0
0-4-45-15-57-13-52-0
0-27-29-48-47-21-30-0
0-58-10-38-11-53-7-0
0-17-12-9-32-51-0
Cost: 319
0-34-46-8-19-35-26-0
0-4-45-15-57-13-52-0
0-27-29-48-47-21-30-0
0-58-10-38-11-53-7-0
0-17-12-9-32-51-0
Cost: 319
0-34-46-8-19-35-26-0
0-4-45-15-57-13-52-0
0-27-29-48-47-21-30-0
0-58-10-38-11-53-7-0
0-17-12-9-32-51-0
Cost: 319
0-34-46-8-19-35-26-0
0-4-45-15-57-13-52-0
0-27-29-48-47-21-30-0
0-58-10-38-11-53-7-0
0-17-12-9-32-51-0
Cost: 319
0-34-46-8-19-35-26-0
0-4-45-15-57-13-52-0
0-27-29-48-47-21-30-0
0-58-10-38-11-53-7-0
0-17-12-9-32-51-0
Cost: 319
0-17-12-9-32-51-0
0-4-45-15-57-13-52-0
0-58-10-38-11-53-7-0
0-34-46-8-19-35-26-0
0-27-29-48-47-21-30-0
Cost: 319
0-34-46-8-19-35-26-0
0-4-45-15-57-13-52-0
0-27-29-48-47-21-30-0
0-58-10-38-11-53-7-0
0-17-12-9-32-51-0
Cost: 319
0-34-46-8-19-35-26-0
0-4-45-15-57-13-52-0
0-27-29-48-47-21-30-0
0-58-10-38-11-53-7-0
0-17-12-9-32-51-0
Cost: 319
0-34-46-8-19-35-26-0
0-4-45-15-57-13-52-0
0-27-29-48-47-21-30-0
0-58-10-38-11-53-7-0
0-17-12-9-32-51-0
Cost: 319
0-33-16-51-17-12-0
0-58-10-38-11-53-7-0
0-4-45-15-57-13-52-0
0-34-46-8-19-35-26-0
0-30-21-47-48-29-27-0
Cost: 0
Cost: 324
0-12-39-9-32-44-40-0
0-33-16-51-17-26-0
0-4-8-19-54-13-52-0
0-7-53-11-38-10-58-0
0-34-45-29-48-21-30-0
Cost: 319
0-30-48-29-45-34-46-0
0-7-53-11-38-10-58-0
0-40-32-25-9-39-12-0
0-26-17-51-16-33-0
0-8-19-54-13-52-4-0
Cost: 319
0-27-29-48-47-21-30-0
0-33-16-51-17-12-0
0-58-10-38-11-53-7-0
0-4-45-15-57-13-52-0
0-26-35-19-8-46-34-0
